peakDumbCharging = 18500; 
Machine = anon_enum(16); 
machineSpeed = [3700,3700,3700,3700,3700,3700,3700,3700,3700,3700,3700,3700,3700,3700,3700,3700]; 
machineLoad = [3700,3700,3700,3700,3700,3700,3700,3700,3700,3700,3700,3700,3700,3700,3700,3700]; 
Car = anon_enum(21); 
demandCar = [4400,4120,11160,7000,13920,9560,24960,11440,2360,12360,28360,8960,8120,5040,21720,34080,7120,7440,9320,30760,4920]; 
arrivalCar = [75,74,70,68,67,65,64,63,62,62,62,60,54,49,49,48,45,43,43,31,30]; 
departureCar = [77,77,75,71,78,69,75,70,65,68,76,67,59,53,57,65,48,50,47,42,33]; 
